NAME: random-24-9575
TYPE: TSP
COMMENT: size=24 seed=9575
DIMENSION: 50
EDGE_WEIGHT_TYPE: EUC_2D
NODE_COORD_SECTION
+0 25 602
-0 25 602
+1 403 288
-1 650 350
+2 637 672
-2 216 344
+3 368 993
-3 908 288
+4 403 944
-4 863 820
+5 166 150
-5 242 799
+6 6 360
-6 565 983
+7 199 314
-7 523 144
+8 136 787
-8 341 101
+9 46 101
-9 542 869
+10 870 71
-10 382 389
+11 889 710
-11 691 588
+12 233 109
-12 242 597
+13 528 896
-13 67 432
+14 574 735
-14 615 612
+15 836 940
-15 554 862
+16 366 812
-16 219 4
+17 222 693
-17 632 409
+18 634 872
-18 791 841
+19 402 287
-19 98 697
+20 3 650
-20 978 698
+21 764 656
-21 672 885
+22 182 674
-22 996 74
+23 455 792
-23 27 750
+24 285 896
-24 884 681
PRECEDENCE_SECTION
+0 -0
+1 -1
+2 -2
+3 -3
+4 -4
+5 -5
+6 -6
+7 -7
+8 -8
+9 -9
+10 -10
+11 -11
+12 -12
+13 -13
+14 -14
+15 -15
+16 -16
+17 -17
+18 -18
+19 -19
+20 -20
+21 -21
+22 -22
+23 -23
+24 -24
EOF
